pair_coeff      1 1 0.601 1.0 3.0
pair_coeff      1 2 0.706 1.0 3.0
pair_coeff      1 3 0.706 1.0 3.0
pair_coeff      2 2 0.403 1.0 3.0
pair_coeff      2 3 0.332 1.0 3.0
pair_coeff      3 3 0.403 1.0 3.0
