pair_coeff      1 1 0.603 1.0 3.0 
pair_coeff      1 2 0.704 1.0 3.0 
pair_coeff      1 3 0.704 1.0 3.0 
pair_coeff      2 2 0.414 1.0 3.0 
pair_coeff      2 3 0.324 1.0 3.0 
pair_coeff      3 3 0.414 1.0 3.0 
